WARNING: for repeatability, setting FPU to use double precision
============================[ Problem Statistics ]=============================
|                                                                             |
|  Number of variables:            50                                         |
|  Number of clauses:             218                                         |
|  Parse time:                   0.00 s                                       |
|                                                                             |
============================[ Search Statistics ]==============================
| Conflicts |          ORIGINAL         |          LEARNT          | Progress |
|           |    Vars  Clauses Literals |    Limit  Clauses Lit/Cl |          |
===============================================================================
===============================================================================
restarts              : 1
conflicts             : 88             (332075 /sec)
decisions             : 99             (0.00 % random) (373585 /sec)
propagations          : 1257           (4743396 /sec)
conflict literals     : 387            (16.59 % deleted)
Memory used           : 20.00 MB
CPU time              : 0.000265 s

UNSATISFIABLE
